\ENCODING=ISO-8859-1
\Problem name: IloCplex

Minimize
 obj1:
Subject To
 c1:   r_5_0  = 1
 c2:   r_5_0 + r_0_0 + r_1_0 + r_2_0 + r_3_0 + r_4_0  = 1
 c3:   r_0_1 + r_1_1 + r_2_1 + r_3_1 + r_4_1 + r_5_1  = 1
 c4:   r_0_2 + r_1_2 + r_2_2 + r_3_2 + r_4_2 + r_5_2  = 1
 c5:   x_1_0 - a_1_4_0 >= 0
 c6:   - a_1_4_0 + x_4_0 >= 0
 c7:   - x_1_0 + a_1_4_0 - x_4_0 >= -1
 c8:   x_1_1 - a_1_4_1 >= 0
 c9:   - a_1_4_1 + x_4_1 >= 0
 c10:  - x_1_1 + a_1_4_1 - x_4_1 >= -1
 c11:  x_1_2 - a_1_4_2 >= 0
 c12:  - a_1_4_2 + x_4_2 >= 0
 c13:  - x_1_2 + a_1_4_2 - x_4_2 >= -1
 c14:  x_2_0 - a_2_4_0 >= 0
 c15:  x_4_0 - a_2_4_0 >= 0
 c16:  - x_4_0 - x_2_0 + a_2_4_0 >= -1
 c17:  x_2_1 - a_2_4_1 >= 0
 c18:  x_4_1 - a_2_4_1 >= 0
 c19:  - x_4_1 - x_2_1 + a_2_4_1 >= -1
 c20:  x_2_2 - a_2_4_2 >= 0
 c21:  x_4_2 - a_2_4_2 >= 0
 c22:  - x_4_2 - x_2_2 + a_2_4_2 >= -1
 c23:  x_3_0 - a_3_4_0 >= 0
 c24:  x_4_0 - a_3_4_0 >= 0
 c25:  - x_4_0 - x_3_0 + a_3_4_0 >= -1
 c26:  x_3_1 - a_3_4_1 >= 0
 c27:  x_4_1 - a_3_4_1 >= 0
 c28:  - x_4_1 - x_3_1 + a_3_4_1 >= -1
 c29:  x_3_2 - a_3_4_2 >= 0
 c30:  x_4_2 - a_3_4_2 >= 0
 c31:  - x_4_2 - x_3_2 + a_3_4_2 >= -1
 c32:  x_0_0 - a_0_3_0 >= 0
 c33:  x_3_0 - a_0_3_0 >= 0
 c34:  - x_3_0 - x_0_0 + a_0_3_0 >= -1
 c35:  x_0_1 - a_0_3_1 >= 0
 c36:  x_3_1 - a_0_3_1 >= 0
 c37:  - x_3_1 - x_0_1 + a_0_3_1 >= -1
 c38:  x_0_2 - a_0_3_2 >= 0
 c39:  x_3_2 - a_0_3_2 >= 0
 c40:  - x_3_2 - x_0_2 + a_0_3_2 >= -1
 c41:  x_0_0 - a_0_2_0 >= 0
 c42:  x_2_0 - a_0_2_0 >= 0
 c43:  - x_2_0 - x_0_0 + a_0_2_0 >= -1
 c44:  x_0_1 - a_0_2_1 >= 0
 c45:  x_2_1 - a_0_2_1 >= 0
 c46:  - x_2_1 - x_0_1 + a_0_2_1 >= -1
 c47:  x_0_2 - a_0_2_2 >= 0
 c48:  x_2_2 - a_0_2_2 >= 0
 c49:  - x_2_2 - x_0_2 + a_0_2_2 >= -1
 c50:  x_0_0 - a_0_1_0 >= 0
 c51:  x_1_0 - a_0_1_0 >= 0
 c52:  - x_1_0 - x_0_0 + a_0_1_0 >= -1
 c53:  x_0_1 - a_0_1_1 >= 0
 c54:  x_1_1 - a_0_1_1 >= 0
 c55:  - x_1_1 - x_0_1 + a_0_1_1 >= -1
 c56:  x_0_2 - a_0_1_2 >= 0
 c57:  x_1_2 - a_0_1_2 >= 0
 c58:  - x_1_2 - x_0_2 + a_0_1_2 >= -1
 c59:  x_5_0 - a_5_0_0 >= 0
 c60:  x_0_0 - a_5_0_0 >= 0
 c61:  - x_0_0 - x_5_0 + a_5_0_0 >= -1
 c62:  x_5_1 - a_5_0_1 >= 0
 c63:  x_0_1 - a_5_0_1 >= 0
 c64:  - x_0_1 - x_5_1 + a_5_0_1 >= -1
 c65:  x_5_2 - a_5_0_2 >= 0
 c66:  x_0_2 - a_5_0_2 >= 0
 c67:  - x_0_2 - x_5_2 + a_5_0_2 >= -1
 c68:  - r_0_0 + x_0_0 >= 0
 c69:  - r_0_1 + x_0_1 >= 0
 c70:  - r_0_2 + x_0_2 >= 0
 c71:  - r_1_0 + x_1_0 >= 0
 c72:  - r_1_1 + x_1_1 >= 0
 c73:  - r_1_2 + x_1_2 >= 0
 c74:  - r_2_0 + x_2_0 >= 0
 c75:  - r_2_1 + x_2_1 >= 0
 c76:  - r_2_2 + x_2_2 >= 0
 c77:  - r_3_0 + x_3_0 >= 0
 c78:  - r_3_1 + x_3_1 >= 0
 c79:  - r_3_2 + x_3_2 >= 0
 c80:  - r_4_0 + x_4_0 >= 0
 c81:  - r_4_1 + x_4_1 >= 0
 c82:  - r_4_2 + x_4_2 >= 0
 c83:  - r_5_0 + x_5_0 >= 0
 c84:  - r_5_1 + x_5_1 >= 0
 c85:  - r_5_2 + x_5_2 >= 0
 c86:  r_0_0 + r_0_1 + r_0_2 + a_5_0_0 + a_5_0_1 + a_5_0_2  = 1
 c87:  r_1_0 + r_1_1 + r_1_2 + a_0_1_0 + a_0_1_1 + a_0_1_2  = 1
 c88:  r_2_0 + r_2_1 + r_2_2 + a_0_2_0 + a_0_2_1 + a_0_2_2  = 1
 c89:  r_3_0 + r_3_1 + r_3_2 + a_0_3_0 + a_0_3_1 + a_0_3_2  = 1
 c90:  r_4_0 + r_4_1 + r_4_2 + a_1_4_0 + a_1_4_1 + a_1_4_2 + a_2_4_0 + a_2_4_1
       + a_2_4_2 + a_3_4_0 + a_3_4_1 + a_3_4_2  = 1
 c91:  a_5_0_0 + a_5_0_1 + a_5_0_2 <= 1
 c92:  a_0_1_0 + a_0_1_1 + a_0_1_2 <= 1
 c93:  a_0_2_0 + a_0_2_1 + a_0_2_2 <= 1
 c94:  a_0_3_0 + a_0_3_1 + a_0_3_2 <= 1
 c95:  a_1_4_0 + a_1_4_1 + a_1_4_2 + a_2_4_0 + a_2_4_1 + a_2_4_2 + a_3_4_0
       + a_3_4_1 + a_3_4_2 <= 1
 c96:  f_0_0  = 0
 c97:  f_1_0  = 0
 c98:  f_2_0  = 0
 c99:  f_3_0  = 0
 c100: f_4_0  = 0
 c101: f_5_0  = 0
 c102: f_0_1 + f_1_1 + f_2_1 + f_3_1 + f_4_1 + f_5_1  = 1
 c103: f_0_2 + f_1_2 + f_2_2 + f_3_2 + f_4_2 + f_5_2  = 1
 c104: - x_0_0 + f_0_1 <= 0
 c105: - x_1_0 + f_1_1 <= 0
 c106: - x_2_0 + f_2_1 <= 0
 c107: - x_3_0 + f_3_1 <= 0
 c108: - x_4_0 + f_4_1 <= 0
 c109: - x_5_0 + f_5_1 <= 0
 c110: - x_0_0 - x_0_1 + f_0_2 <= 0
 c111: - x_1_0 - x_1_1 + f_1_2 <= 0
 c112: - x_2_0 - x_2_1 + f_2_2 <= 0
 c113: - x_3_0 - x_3_1 + f_3_2 <= 0
 c114: - x_4_0 - x_4_1 + f_4_2 <= 0
 c115: - x_5_0 - x_5_1 + f_5_2 <= 0
 c116: r_0_1 + f_0_1 <= 2
 c117: r_0_2 + f_0_2 <= 2
 c118: r_1_1 + f_0_1 <= 1
 c119: r_1_2 + f_0_2 <= 1
 c120: r_2_1 + f_0_1 <= 1
 c121: r_2_2 + f_0_2 <= 1
 c122: r_3_1 + f_0_1 <= 1
 c123: r_3_2 + f_0_2 <= 1
 c124: r_4_1 + f_0_1 <= 1
 c125: r_4_2 + f_0_2 <= 1
 c126: r_5_1 + f_0_1 <= 2
 c127: r_5_2 + f_0_2 <= 2
 c128: r_0_1 + f_1_1 <= 2
 c129: r_0_2 + f_1_2 <= 2
 c130: r_1_1 + f_1_1 <= 2
 c131: r_1_2 + f_1_2 <= 2
 c132: r_2_1 + f_1_1 <= 2
 c133: r_2_2 + f_1_2 <= 2
 c134: r_3_1 + f_1_1 <= 2
 c135: r_3_2 + f_1_2 <= 2
 c136: r_4_1 + f_1_1 <= 1
 c137: r_4_2 + f_1_2 <= 1
 c138: r_5_1 + f_1_1 <= 2
 c139: r_5_2 + f_1_2 <= 2
 c140: r_0_1 + f_2_1 <= 2
 c141: r_0_2 + f_2_2 <= 2
 c142: r_1_1 + f_2_1 <= 2
 c143: r_1_2 + f_2_2 <= 2
 c144: r_2_1 + f_2_1 <= 2
 c145: r_2_2 + f_2_2 <= 2
 c146: r_3_1 + f_2_1 <= 2
 c147: r_3_2 + f_2_2 <= 2
 c148: r_4_1 + f_2_1 <= 1
 c149: r_4_2 + f_2_2 <= 1
 c150: r_5_1 + f_2_1 <= 2
 c151: r_5_2 + f_2_2 <= 2
 c152: r_0_1 + f_3_1 <= 2
 c153: r_0_2 + f_3_2 <= 2
 c154: r_1_1 + f_3_1 <= 2
 c155: r_1_2 + f_3_2 <= 2
 c156: r_2_1 + f_3_1 <= 2
 c157: r_2_2 + f_3_2 <= 2
 c158: r_3_1 + f_3_1 <= 2
 c159: r_3_2 + f_3_2 <= 2
 c160: r_4_1 + f_3_1 <= 1
 c161: r_4_2 + f_3_2 <= 1
 c162: r_5_1 + f_3_1 <= 2
 c163: r_5_2 + f_3_2 <= 2
 c164: r_0_1 + f_4_1 <= 2
 c165: r_0_2 + f_4_2 <= 2
 c166: r_1_1 + f_4_1 <= 2
 c167: r_1_2 + f_4_2 <= 2
 c168: r_2_1 + f_4_1 <= 2
 c169: r_2_2 + f_4_2 <= 2
 c170: r_3_1 + f_4_1 <= 2
 c171: r_3_2 + f_4_2 <= 2
 c172: r_4_1 + f_4_1 <= 2
 c173: r_4_2 + f_4_2 <= 2
 c174: r_5_1 + f_4_1 <= 2
 c175: r_5_2 + f_4_2 <= 2
 c176: r_0_1 + f_5_1 <= 1
 c177: r_0_2 + f_5_2 <= 1
 c178: r_1_1 + f_5_1 <= 1
 c179: r_1_2 + f_5_2 <= 1
 c180: r_2_1 + f_5_1 <= 1
 c181: r_2_2 + f_5_2 <= 1
 c182: r_3_1 + f_5_1 <= 1
 c183: r_3_2 + f_5_2 <= 1
 c184: r_4_1 + f_5_1 <= 1
 c185: r_4_2 + f_5_2 <= 1
 c186: r_5_1 + f_5_1 <= 2
 c187: r_5_2 + f_5_2 <= 2
 c188: - f_0_1 + h_0_0_0_1 <= 0
 c189: - x_0_0 + h_0_0_0_1 <= 0
 c190: h_0_0_0_1 - g_0_0 <= 0
 c191: - x_0_0 - f_0_1 + h_0_0_0_1 - g_0_0 >= -2
 c192: - f_0_2 + h_0_0_0_2 <= 0
 c193: - x_0_0 + h_0_0_0_2 <= 0
 c194: - g_0_0 + h_0_0_0_2 <= 0
 c195: - x_0_0 - f_0_2 - g_0_0 + h_0_0_0_2 >= -2
 c196: - f_0_2 + h_0_0_1_2 <= 0
 c197: - x_0_1 + h_0_0_1_2 <= 0
 c198: h_0_0_1_2 - g_0_1 <= 0
 c199: - x_0_1 - f_0_2 + h_0_0_1_2 - g_0_1 >= -2
 c200: - f_1_1 + h_0_1_0_1 <= 0
 c201: - x_1_0 + h_0_1_0_1 <= 0
 c202: - g_0_0 + h_0_1_0_1 <= 0
 c203: - x_1_0 - f_1_1 - g_0_0 + h_0_1_0_1 >= -2
 c204: - f_1_2 + h_0_1_0_2 <= 0
 c205: - x_1_0 + h_0_1_0_2 <= 0
 c206: - g_0_0 + h_0_1_0_2 <= 0
 c207: - x_1_0 - f_1_2 - g_0_0 + h_0_1_0_2 >= -2
 c208: - f_1_2 + h_0_1_1_2 <= 0
 c209: - x_1_1 + h_0_1_1_2 <= 0
 c210: - g_0_1 + h_0_1_1_2 <= 0
 c211: - x_1_1 - f_1_2 - g_0_1 + h_0_1_1_2 >= -2
 c212: - f_2_1 + h_0_2_0_1 <= 0
 c213: - x_2_0 + h_0_2_0_1 <= 0
 c214: - g_0_0 + h_0_2_0_1 <= 0
 c215: - x_2_0 - f_2_1 - g_0_0 + h_0_2_0_1 >= -2
 c216: - f_2_2 + h_0_2_0_2 <= 0
 c217: - x_2_0 + h_0_2_0_2 <= 0
 c218: - g_0_0 + h_0_2_0_2 <= 0
 c219: - x_2_0 - f_2_2 - g_0_0 + h_0_2_0_2 >= -2
 c220: - f_2_2 + h_0_2_1_2 <= 0
 c221: - x_2_1 + h_0_2_1_2 <= 0
 c222: - g_0_1 + h_0_2_1_2 <= 0
 c223: - x_2_1 - f_2_2 - g_0_1 + h_0_2_1_2 >= -2
 c224: - f_3_1 + h_0_3_0_1 <= 0
 c225: - x_3_0 + h_0_3_0_1 <= 0
 c226: - g_0_0 + h_0_3_0_1 <= 0
 c227: - x_3_0 - f_3_1 - g_0_0 + h_0_3_0_1 >= -2
 c228: - f_3_2 + h_0_3_0_2 <= 0
 c229: - x_3_0 + h_0_3_0_2 <= 0
 c230: - g_0_0 + h_0_3_0_2 <= 0
 c231: - x_3_0 - f_3_2 - g_0_0 + h_0_3_0_2 >= -2
 c232: - f_3_2 + h_0_3_1_2 <= 0
 c233: - x_3_1 + h_0_3_1_2 <= 0
 c234: - g_0_1 + h_0_3_1_2 <= 0
 c235: - x_3_1 - f_3_2 - g_0_1 + h_0_3_1_2 >= -2
 c236: - f_4_1 + h_0_4_0_1 <= 0
 c237: - x_4_0 + h_0_4_0_1 <= 0
 c238: - g_0_0 + h_0_4_0_1 <= 0
 c239: - x_4_0 - f_4_1 - g_0_0 + h_0_4_0_1 >= -2
 c240: - f_4_2 + h_0_4_0_2 <= 0
 c241: - x_4_0 + h_0_4_0_2 <= 0
 c242: - g_0_0 + h_0_4_0_2 <= 0
 c243: - x_4_0 - f_4_2 - g_0_0 + h_0_4_0_2 >= -2
 c244: - f_4_2 + h_0_4_1_2 <= 0
 c245: - x_4_1 + h_0_4_1_2 <= 0
 c246: - g_0_1 + h_0_4_1_2 <= 0
 c247: - x_4_1 - f_4_2 - g_0_1 + h_0_4_1_2 >= -2
 c248: - f_5_1 + h_0_5_0_1 <= 0
 c249: - x_5_0 + h_0_5_0_1 <= 0
 c250: - g_0_0 + h_0_5_0_1 <= 0
 c251: - x_5_0 - f_5_1 - g_0_0 + h_0_5_0_1 >= -2
 c252: - f_5_2 + h_0_5_0_2 <= 0
 c253: - x_5_0 + h_0_5_0_2 <= 0
 c254: - g_0_0 + h_0_5_0_2 <= 0
 c255: - x_5_0 - f_5_2 - g_0_0 + h_0_5_0_2 >= -2
 c256: - f_5_2 + h_0_5_1_2 <= 0
 c257: - x_5_1 + h_0_5_1_2 <= 0
 c258: - g_0_1 + h_0_5_1_2 <= 0
 c259: - x_5_1 - f_5_2 - g_0_1 + h_0_5_1_2 >= -2
 c260: - f_0_1 + h_1_0_0_1 <= 0
 c261: - x_0_0 + h_1_0_0_1 <= 0
 c262: h_1_0_0_1 - g_1_0 <= 0
 c263: - x_0_0 - f_0_1 + h_1_0_0_1 - g_1_0 >= -2
 c264: - f_0_2 + h_1_0_0_2 <= 0
 c265: - x_0_0 + h_1_0_0_2 <= 0
 c266: - g_1_0 + h_1_0_0_2 <= 0
 c267: - x_0_0 - f_0_2 - g_1_0 + h_1_0_0_2 >= -2
 c268: - f_0_2 + h_1_0_1_2 <= 0
 c269: - x_0_1 + h_1_0_1_2 <= 0
 c270: h_1_0_1_2 - g_1_1 <= 0
 c271: - x_0_1 - f_0_2 + h_1_0_1_2 - g_1_1 >= -2
 c272: - f_1_1 + h_1_1_0_1 <= 0
 c273: - x_1_0 + h_1_1_0_1 <= 0
 c274: - g_1_0 + h_1_1_0_1 <= 0
 c275: - x_1_0 - f_1_1 - g_1_0 + h_1_1_0_1 >= -2
 c276: - f_1_2 + h_1_1_0_2 <= 0
 c277: - x_1_0 + h_1_1_0_2 <= 0
 c278: - g_1_0 + h_1_1_0_2 <= 0
 c279: - x_1_0 - f_1_2 - g_1_0 + h_1_1_0_2 >= -2
 c280: - f_1_2 + h_1_1_1_2 <= 0
 c281: - x_1_1 + h_1_1_1_2 <= 0
 c282: - g_1_1 + h_1_1_1_2 <= 0
 c283: - x_1_1 - f_1_2 - g_1_1 + h_1_1_1_2 >= -2
 c284: - f_2_1 + h_1_2_0_1 <= 0
 c285: - x_2_0 + h_1_2_0_1 <= 0
 c286: - g_1_0 + h_1_2_0_1 <= 0
 c287: - x_2_0 - f_2_1 - g_1_0 + h_1_2_0_1 >= -2
 c288: - f_2_2 + h_1_2_0_2 <= 0
 c289: - x_2_0 + h_1_2_0_2 <= 0
 c290: - g_1_0 + h_1_2_0_2 <= 0
 c291: - x_2_0 - f_2_2 - g_1_0 + h_1_2_0_2 >= -2
 c292: - f_2_2 + h_1_2_1_2 <= 0
 c293: - x_2_1 + h_1_2_1_2 <= 0
 c294: - g_1_1 + h_1_2_1_2 <= 0
 c295: - x_2_1 - f_2_2 - g_1_1 + h_1_2_1_2 >= -2
 c296: - f_3_1 + h_1_3_0_1 <= 0
 c297: - x_3_0 + h_1_3_0_1 <= 0
 c298: - g_1_0 + h_1_3_0_1 <= 0
 c299: - x_3_0 - f_3_1 - g_1_0 + h_1_3_0_1 >= -2
 c300: - f_3_2 + h_1_3_0_2 <= 0
 c301: - x_3_0 + h_1_3_0_2 <= 0
 c302: - g_1_0 + h_1_3_0_2 <= 0
 c303: - x_3_0 - f_3_2 - g_1_0 + h_1_3_0_2 >= -2
 c304: - f_3_2 + h_1_3_1_2 <= 0
 c305: - x_3_1 + h_1_3_1_2 <= 0
 c306: - g_1_1 + h_1_3_1_2 <= 0
 c307: - x_3_1 - f_3_2 - g_1_1 + h_1_3_1_2 >= -2
 c308: - f_4_1 + h_1_4_0_1 <= 0
 c309: - x_4_0 + h_1_4_0_1 <= 0
 c310: - g_1_0 + h_1_4_0_1 <= 0
 c311: - x_4_0 - f_4_1 - g_1_0 + h_1_4_0_1 >= -2
 c312: - f_4_2 + h_1_4_0_2 <= 0
 c313: - x_4_0 + h_1_4_0_2 <= 0
 c314: - g_1_0 + h_1_4_0_2 <= 0
 c315: - x_4_0 - f_4_2 - g_1_0 + h_1_4_0_2 >= -2
 c316: - f_4_2 + h_1_4_1_2 <= 0
 c317: - x_4_1 + h_1_4_1_2 <= 0
 c318: - g_1_1 + h_1_4_1_2 <= 0
 c319: - x_4_1 - f_4_2 - g_1_1 + h_1_4_1_2 >= -2
 c320: - f_5_1 + h_1_5_0_1 <= 0
 c321: - x_5_0 + h_1_5_0_1 <= 0
 c322: - g_1_0 + h_1_5_0_1 <= 0
 c323: - x_5_0 - f_5_1 - g_1_0 + h_1_5_0_1 >= -2
 c324: - f_5_2 + h_1_5_0_2 <= 0
 c325: - x_5_0 + h_1_5_0_2 <= 0
 c326: - g_1_0 + h_1_5_0_2 <= 0
 c327: - x_5_0 - f_5_2 - g_1_0 + h_1_5_0_2 >= -2
 c328: - f_5_2 + h_1_5_1_2 <= 0
 c329: - x_5_1 + h_1_5_1_2 <= 0
 c330: - g_1_1 + h_1_5_1_2 <= 0
 c331: - x_5_1 - f_5_2 - g_1_1 + h_1_5_1_2 >= -2
 c332: - f_0_1 + h_2_0_0_1 <= 0
 c333: - x_0_0 + h_2_0_0_1 <= 0
 c334: h_2_0_0_1 - g_2_0 <= 0
 c335: - x_0_0 - f_0_1 + h_2_0_0_1 - g_2_0 >= -2
 c336: - f_0_2 + h_2_0_0_2 <= 0
 c337: - x_0_0 + h_2_0_0_2 <= 0
 c338: - g_2_0 + h_2_0_0_2 <= 0
 c339: - x_0_0 - f_0_2 - g_2_0 + h_2_0_0_2 >= -2
 c340: - f_0_2 + h_2_0_1_2 <= 0
 c341: - x_0_1 + h_2_0_1_2 <= 0
 c342: h_2_0_1_2 - g_2_1 <= 0
 c343: - x_0_1 - f_0_2 + h_2_0_1_2 - g_2_1 >= -2
 c344: - f_1_1 + h_2_1_0_1 <= 0
 c345: - x_1_0 + h_2_1_0_1 <= 0
 c346: - g_2_0 + h_2_1_0_1 <= 0
 c347: - x_1_0 - f_1_1 - g_2_0 + h_2_1_0_1 >= -2
 c348: - f_1_2 + h_2_1_0_2 <= 0
 c349: - x_1_0 + h_2_1_0_2 <= 0
 c350: - g_2_0 + h_2_1_0_2 <= 0
 c351: - x_1_0 - f_1_2 - g_2_0 + h_2_1_0_2 >= -2
 c352: - f_1_2 + h_2_1_1_2 <= 0
 c353: - x_1_1 + h_2_1_1_2 <= 0
 c354: - g_2_1 + h_2_1_1_2 <= 0
 c355: - x_1_1 - f_1_2 - g_2_1 + h_2_1_1_2 >= -2
 c356: - f_2_1 + h_2_2_0_1 <= 0
 c357: - x_2_0 + h_2_2_0_1 <= 0
 c358: - g_2_0 + h_2_2_0_1 <= 0
 c359: - x_2_0 - f_2_1 - g_2_0 + h_2_2_0_1 >= -2
 c360: - f_2_2 + h_2_2_0_2 <= 0
 c361: - x_2_0 + h_2_2_0_2 <= 0
 c362: - g_2_0 + h_2_2_0_2 <= 0
 c363: - x_2_0 - f_2_2 - g_2_0 + h_2_2_0_2 >= -2
 c364: - f_2_2 + h_2_2_1_2 <= 0
 c365: - x_2_1 + h_2_2_1_2 <= 0
 c366: - g_2_1 + h_2_2_1_2 <= 0
 c367: - x_2_1 - f_2_2 - g_2_1 + h_2_2_1_2 >= -2
 c368: - f_3_1 + h_2_3_0_1 <= 0
 c369: - x_3_0 + h_2_3_0_1 <= 0
 c370: - g_2_0 + h_2_3_0_1 <= 0
 c371: - x_3_0 - f_3_1 - g_2_0 + h_2_3_0_1 >= -2
 c372: - f_3_2 + h_2_3_0_2 <= 0
 c373: - x_3_0 + h_2_3_0_2 <= 0
 c374: - g_2_0 + h_2_3_0_2 <= 0
 c375: - x_3_0 - f_3_2 - g_2_0 + h_2_3_0_2 >= -2
 c376: - f_3_2 + h_2_3_1_2 <= 0
 c377: - x_3_1 + h_2_3_1_2 <= 0
 c378: - g_2_1 + h_2_3_1_2 <= 0
 c379: - x_3_1 - f_3_2 - g_2_1 + h_2_3_1_2 >= -2
 c380: - f_4_1 + h_2_4_0_1 <= 0
 c381: - x_4_0 + h_2_4_0_1 <= 0
 c382: - g_2_0 + h_2_4_0_1 <= 0
 c383: - x_4_0 - f_4_1 - g_2_0 + h_2_4_0_1 >= -2
 c384: - f_4_2 + h_2_4_0_2 <= 0
 c385: - x_4_0 + h_2_4_0_2 <= 0
 c386: - g_2_0 + h_2_4_0_2 <= 0
 c387: - x_4_0 - f_4_2 - g_2_0 + h_2_4_0_2 >= -2
 c388: - f_4_2 + h_2_4_1_2 <= 0
 c389: - x_4_1 + h_2_4_1_2 <= 0
 c390: - g_2_1 + h_2_4_1_2 <= 0
 c391: - x_4_1 - f_4_2 - g_2_1 + h_2_4_1_2 >= -2
 c392: - f_5_1 + h_2_5_0_1 <= 0
 c393: - x_5_0 + h_2_5_0_1 <= 0
 c394: - g_2_0 + h_2_5_0_1 <= 0
 c395: - x_5_0 - f_5_1 - g_2_0 + h_2_5_0_1 >= -2
 c396: - f_5_2 + h_2_5_0_2 <= 0
 c397: - x_5_0 + h_2_5_0_2 <= 0
 c398: - g_2_0 + h_2_5_0_2 <= 0
 c399: - x_5_0 - f_5_2 - g_2_0 + h_2_5_0_2 >= -2
 c400: - f_5_2 + h_2_5_1_2 <= 0
 c401: - x_5_1 + h_2_5_1_2 <= 0
 c402: - g_2_1 + h_2_5_1_2 <= 0
 c403: - x_5_1 - f_5_2 - g_2_1 + h_2_5_1_2 >= -2
 c404: - f_0_1 + h_3_0_0_1 <= 0
 c405: - x_0_0 + h_3_0_0_1 <= 0
 c406: h_3_0_0_1 - g_3_0 <= 0
 c407: - x_0_0 - f_0_1 + h_3_0_0_1 - g_3_0 >= -2
 c408: - f_0_2 + h_3_0_0_2 <= 0
 c409: - x_0_0 + h_3_0_0_2 <= 0
 c410: - g_3_0 + h_3_0_0_2 <= 0
 c411: - x_0_0 - f_0_2 - g_3_0 + h_3_0_0_2 >= -2
 c412: - f_0_2 + h_3_0_1_2 <= 0
 c413: - x_0_1 + h_3_0_1_2 <= 0
 c414: h_3_0_1_2 - g_3_1 <= 0
 c415: - x_0_1 - f_0_2 + h_3_0_1_2 - g_3_1 >= -2
 c416: - f_1_1 + h_3_1_0_1 <= 0
 c417: - x_1_0 + h_3_1_0_1 <= 0
 c418: - g_3_0 + h_3_1_0_1 <= 0
 c419: - x_1_0 - f_1_1 - g_3_0 + h_3_1_0_1 >= -2
 c420: - f_1_2 + h_3_1_0_2 <= 0
 c421: - x_1_0 + h_3_1_0_2 <= 0
 c422: - g_3_0 + h_3_1_0_2 <= 0
 c423: - x_1_0 - f_1_2 - g_3_0 + h_3_1_0_2 >= -2
 c424: - f_1_2 + h_3_1_1_2 <= 0
 c425: - x_1_1 + h_3_1_1_2 <= 0
 c426: - g_3_1 + h_3_1_1_2 <= 0
 c427: - x_1_1 - f_1_2 - g_3_1 + h_3_1_1_2 >= -2
 c428: - f_2_1 + h_3_2_0_1 <= 0
 c429: - x_2_0 + h_3_2_0_1 <= 0
 c430: - g_3_0 + h_3_2_0_1 <= 0
 c431: - x_2_0 - f_2_1 - g_3_0 + h_3_2_0_1 >= -2
 c432: - f_2_2 + h_3_2_0_2 <= 0
 c433: - x_2_0 + h_3_2_0_2 <= 0
 c434: - g_3_0 + h_3_2_0_2 <= 0
 c435: - x_2_0 - f_2_2 - g_3_0 + h_3_2_0_2 >= -2
 c436: - f_2_2 + h_3_2_1_2 <= 0
 c437: - x_2_1 + h_3_2_1_2 <= 0
 c438: - g_3_1 + h_3_2_1_2 <= 0
 c439: - x_2_1 - f_2_2 - g_3_1 + h_3_2_1_2 >= -2
 c440: - f_3_1 + h_3_3_0_1 <= 0
 c441: - x_3_0 + h_3_3_0_1 <= 0
 c442: - g_3_0 + h_3_3_0_1 <= 0
 c443: - x_3_0 - f_3_1 - g_3_0 + h_3_3_0_1 >= -2
 c444: - f_3_2 + h_3_3_0_2 <= 0
 c445: - x_3_0 + h_3_3_0_2 <= 0
 c446: - g_3_0 + h_3_3_0_2 <= 0
 c447: - x_3_0 - f_3_2 - g_3_0 + h_3_3_0_2 >= -2
 c448: - f_3_2 + h_3_3_1_2 <= 0
 c449: - x_3_1 + h_3_3_1_2 <= 0
 c450: - g_3_1 + h_3_3_1_2 <= 0
 c451: - x_3_1 - f_3_2 - g_3_1 + h_3_3_1_2 >= -2
 c452: - f_4_1 + h_3_4_0_1 <= 0
 c453: - x_4_0 + h_3_4_0_1 <= 0
 c454: - g_3_0 + h_3_4_0_1 <= 0
 c455: - x_4_0 - f_4_1 - g_3_0 + h_3_4_0_1 >= -2
 c456: - f_4_2 + h_3_4_0_2 <= 0
 c457: - x_4_0 + h_3_4_0_2 <= 0
 c458: - g_3_0 + h_3_4_0_2 <= 0
 c459: - x_4_0 - f_4_2 - g_3_0 + h_3_4_0_2 >= -2
 c460: - f_4_2 + h_3_4_1_2 <= 0
 c461: - x_4_1 + h_3_4_1_2 <= 0
 c462: - g_3_1 + h_3_4_1_2 <= 0
 c463: - x_4_1 - f_4_2 - g_3_1 + h_3_4_1_2 >= -2
 c464: - f_5_1 + h_3_5_0_1 <= 0
 c465: - x_5_0 + h_3_5_0_1 <= 0
 c466: - g_3_0 + h_3_5_0_1 <= 0
 c467: - x_5_0 - f_5_1 - g_3_0 + h_3_5_0_1 >= -2
 c468: - f_5_2 + h_3_5_0_2 <= 0
 c469: - x_5_0 + h_3_5_0_2 <= 0
 c470: - g_3_0 + h_3_5_0_2 <= 0
 c471: - x_5_0 - f_5_2 - g_3_0 + h_3_5_0_2 >= -2
 c472: - f_5_2 + h_3_5_1_2 <= 0
 c473: - x_5_1 + h_3_5_1_2 <= 0
 c474: - g_3_1 + h_3_5_1_2 <= 0
 c475: - x_5_1 - f_5_2 - g_3_1 + h_3_5_1_2 >= -2
 c476: - f_0_1 + h_4_0_0_1 <= 0
 c477: - x_0_0 + h_4_0_0_1 <= 0
 c478: h_4_0_0_1 - g_4_0 <= 0
 c479: - x_0_0 - f_0_1 + h_4_0_0_1 - g_4_0 >= -2
 c480: - f_0_2 + h_4_0_0_2 <= 0
 c481: - x_0_0 + h_4_0_0_2 <= 0
 c482: - g_4_0 + h_4_0_0_2 <= 0
 c483: - x_0_0 - f_0_2 - g_4_0 + h_4_0_0_2 >= -2
 c484: - f_0_2 + h_4_0_1_2 <= 0
 c485: - x_0_1 + h_4_0_1_2 <= 0
 c486: h_4_0_1_2 - g_4_1 <= 0
 c487: - x_0_1 - f_0_2 + h_4_0_1_2 - g_4_1 >= -2
 c488: - f_1_1 + h_4_1_0_1 <= 0
 c489: - x_1_0 + h_4_1_0_1 <= 0
 c490: - g_4_0 + h_4_1_0_1 <= 0
 c491: - x_1_0 - f_1_1 - g_4_0 + h_4_1_0_1 >= -2
 c492: - f_1_2 + h_4_1_0_2 <= 0
 c493: - x_1_0 + h_4_1_0_2 <= 0
 c494: - g_4_0 + h_4_1_0_2 <= 0
 c495: - x_1_0 - f_1_2 - g_4_0 + h_4_1_0_2 >= -2
 c496: - f_1_2 + h_4_1_1_2 <= 0
 c497: - x_1_1 + h_4_1_1_2 <= 0
 c498: - g_4_1 + h_4_1_1_2 <= 0
 c499: - x_1_1 - f_1_2 - g_4_1 + h_4_1_1_2 >= -2
 c500: - f_2_1 + h_4_2_0_1 <= 0
 c501: - x_2_0 + h_4_2_0_1 <= 0
 c502: - g_4_0 + h_4_2_0_1 <= 0
 c503: - x_2_0 - f_2_1 - g_4_0 + h_4_2_0_1 >= -2
 c504: - f_2_2 + h_4_2_0_2 <= 0
 c505: - x_2_0 + h_4_2_0_2 <= 0
 c506: - g_4_0 + h_4_2_0_2 <= 0
 c507: - x_2_0 - f_2_2 - g_4_0 + h_4_2_0_2 >= -2
 c508: - f_2_2 + h_4_2_1_2 <= 0
 c509: - x_2_1 + h_4_2_1_2 <= 0
 c510: - g_4_1 + h_4_2_1_2 <= 0
 c511: - x_2_1 - f_2_2 - g_4_1 + h_4_2_1_2 >= -2
 c512: - f_3_1 + h_4_3_0_1 <= 0
 c513: - x_3_0 + h_4_3_0_1 <= 0
 c514: - g_4_0 + h_4_3_0_1 <= 0
 c515: - x_3_0 - f_3_1 - g_4_0 + h_4_3_0_1 >= -2
 c516: - f_3_2 + h_4_3_0_2 <= 0
 c517: - x_3_0 + h_4_3_0_2 <= 0
 c518: - g_4_0 + h_4_3_0_2 <= 0
 c519: - x_3_0 - f_3_2 - g_4_0 + h_4_3_0_2 >= -2
 c520: - f_3_2 + h_4_3_1_2 <= 0
 c521: - x_3_1 + h_4_3_1_2 <= 0
 c522: - g_4_1 + h_4_3_1_2 <= 0
 c523: - x_3_1 - f_3_2 - g_4_1 + h_4_3_1_2 >= -2
 c524: - f_4_1 + h_4_4_0_1 <= 0
 c525: - x_4_0 + h_4_4_0_1 <= 0
 c526: - g_4_0 + h_4_4_0_1 <= 0
 c527: - x_4_0 - f_4_1 - g_4_0 + h_4_4_0_1 >= -2
 c528: - f_4_2 + h_4_4_0_2 <= 0
 c529: - x_4_0 + h_4_4_0_2 <= 0
 c530: - g_4_0 + h_4_4_0_2 <= 0
 c531: - x_4_0 - f_4_2 - g_4_0 + h_4_4_0_2 >= -2
 c532: - f_4_2 + h_4_4_1_2 <= 0
 c533: - x_4_1 + h_4_4_1_2 <= 0
 c534: - g_4_1 + h_4_4_1_2 <= 0
 c535: - x_4_1 - f_4_2 - g_4_1 + h_4_4_1_2 >= -2
 c536: - f_5_1 + h_4_5_0_1 <= 0
 c537: - x_5_0 + h_4_5_0_1 <= 0
 c538: - g_4_0 + h_4_5_0_1 <= 0
 c539: - x_5_0 - f_5_1 - g_4_0 + h_4_5_0_1 >= -2
 c540: - f_5_2 + h_4_5_0_2 <= 0
 c541: - x_5_0 + h_4_5_0_2 <= 0
 c542: - g_4_0 + h_4_5_0_2 <= 0
 c543: - x_5_0 - f_5_2 - g_4_0 + h_4_5_0_2 >= -2
 c544: - f_5_2 + h_4_5_1_2 <= 0
 c545: - x_5_1 + h_4_5_1_2 <= 0
 c546: - g_4_1 + h_4_5_1_2 <= 0
 c547: - x_5_1 - f_5_2 - g_4_1 + h_4_5_1_2 >= -2
 c548: - f_0_1 + h_5_0_0_1 <= 0
 c549: - x_0_0 + h_5_0_0_1 <= 0
 c550: h_5_0_0_1 - g_5_0 <= 0
 c551: - x_0_0 - f_0_1 + h_5_0_0_1 - g_5_0 >= -2
 c552: - f_0_2 + h_5_0_0_2 <= 0
 c553: - x_0_0 + h_5_0_0_2 <= 0
 c554: - g_5_0 + h_5_0_0_2 <= 0
 c555: - x_0_0 - f_0_2 - g_5_0 + h_5_0_0_2 >= -2
 c556: - f_0_2 + h_5_0_1_2 <= 0
 c557: - x_0_1 + h_5_0_1_2 <= 0
 c558: h_5_0_1_2 - g_5_1 <= 0
 c559: - x_0_1 - f_0_2 + h_5_0_1_2 - g_5_1 >= -2
 c560: - f_1_1 + h_5_1_0_1 <= 0
 c561: - x_1_0 + h_5_1_0_1 <= 0
 c562: - g_5_0 + h_5_1_0_1 <= 0
 c563: - x_1_0 - f_1_1 - g_5_0 + h_5_1_0_1 >= -2
 c564: - f_1_2 + h_5_1_0_2 <= 0
 c565: - x_1_0 + h_5_1_0_2 <= 0
 c566: - g_5_0 + h_5_1_0_2 <= 0
 c567: - x_1_0 - f_1_2 - g_5_0 + h_5_1_0_2 >= -2
 c568: - f_1_2 + h_5_1_1_2 <= 0
 c569: - x_1_1 + h_5_1_1_2 <= 0
 c570: - g_5_1 + h_5_1_1_2 <= 0
 c571: - x_1_1 - f_1_2 - g_5_1 + h_5_1_1_2 >= -2
 c572: - f_2_1 + h_5_2_0_1 <= 0
 c573: - x_2_0 + h_5_2_0_1 <= 0
 c574: - g_5_0 + h_5_2_0_1 <= 0
 c575: - x_2_0 - f_2_1 - g_5_0 + h_5_2_0_1 >= -2
 c576: - f_2_2 + h_5_2_0_2 <= 0
 c577: - x_2_0 + h_5_2_0_2 <= 0
 c578: - g_5_0 + h_5_2_0_2 <= 0
 c579: - x_2_0 - f_2_2 - g_5_0 + h_5_2_0_2 >= -2
 c580: - f_2_2 + h_5_2_1_2 <= 0
 c581: - x_2_1 + h_5_2_1_2 <= 0
 c582: - g_5_1 + h_5_2_1_2 <= 0
 c583: - x_2_1 - f_2_2 - g_5_1 + h_5_2_1_2 >= -2
 c584: - f_3_1 + h_5_3_0_1 <= 0
 c585: - x_3_0 + h_5_3_0_1 <= 0
 c586: - g_5_0 + h_5_3_0_1 <= 0
 c587: - x_3_0 - f_3_1 - g_5_0 + h_5_3_0_1 >= -2
 c588: - f_3_2 + h_5_3_0_2 <= 0
 c589: - x_3_0 + h_5_3_0_2 <= 0
 c590: - g_5_0 + h_5_3_0_2 <= 0
 c591: - x_3_0 - f_3_2 - g_5_0 + h_5_3_0_2 >= -2
 c592: - f_3_2 + h_5_3_1_2 <= 0
 c593: - x_3_1 + h_5_3_1_2 <= 0
 c594: - g_5_1 + h_5_3_1_2 <= 0
 c595: - x_3_1 - f_3_2 - g_5_1 + h_5_3_1_2 >= -2
 c596: - f_4_1 + h_5_4_0_1 <= 0
 c597: - x_4_0 + h_5_4_0_1 <= 0
 c598: - g_5_0 + h_5_4_0_1 <= 0
 c599: - x_4_0 - f_4_1 - g_5_0 + h_5_4_0_1 >= -2
 c600: - f_4_2 + h_5_4_0_2 <= 0
 c601: - x_4_0 + h_5_4_0_2 <= 0
 c602: - g_5_0 + h_5_4_0_2 <= 0
 c603: - x_4_0 - f_4_2 - g_5_0 + h_5_4_0_2 >= -2
 c604: - f_4_2 + h_5_4_1_2 <= 0
 c605: - x_4_1 + h_5_4_1_2 <= 0
 c606: - g_5_1 + h_5_4_1_2 <= 0
 c607: - x_4_1 - f_4_2 - g_5_1 + h_5_4_1_2 >= -2
 c608: - f_5_1 + h_5_5_0_1 <= 0
 c609: - x_5_0 + h_5_5_0_1 <= 0
 c610: - g_5_0 + h_5_5_0_1 <= 0
 c611: - x_5_0 - f_5_1 - g_5_0 + h_5_5_0_1 >= -2
 c612: - f_5_2 + h_5_5_0_2 <= 0
 c613: - x_5_0 + h_5_5_0_2 <= 0
 c614: - g_5_0 + h_5_5_0_2 <= 0
 c615: - x_5_0 - f_5_2 - g_5_0 + h_5_5_0_2 >= -2
 c616: - f_5_2 + h_5_5_1_2 <= 0
 c617: - x_5_1 + h_5_5_1_2 <= 0
 c618: - g_5_1 + h_5_5_1_2 <= 0
 c619: - x_5_1 - f_5_2 - g_5_1 + h_5_5_1_2 >= -2
 c620: - f_0_1 - h_0_0_0_1 + g_0_1 - h_0_1_0_1 - h_0_2_0_1 - h_0_3_0_1
       - h_0_4_0_1 - h_0_5_0_1  = 0
 c621: - f_0_2 - h_0_0_0_2 - h_0_0_1_2 - h_0_1_0_2 - h_0_1_1_2 - h_0_2_0_2
       - h_0_2_1_2 - h_0_3_0_2 - h_0_3_1_2 - h_0_4_0_2 - h_0_4_1_2 - h_0_5_0_2
       - h_0_5_1_2 + g_0_2  = 0
 c622: - f_1_1 - h_1_0_0_1 + g_1_1 - h_1_1_0_1 - h_1_2_0_1 - h_1_3_0_1
       - h_1_4_0_1 - h_1_5_0_1  = 0
 c623: - f_1_2 - h_1_0_0_2 - h_1_0_1_2 - h_1_1_0_2 - h_1_1_1_2 - h_1_2_0_2
       - h_1_2_1_2 - h_1_3_0_2 - h_1_3_1_2 - h_1_4_0_2 - h_1_4_1_2 - h_1_5_0_2
       - h_1_5_1_2 + g_1_2  = 0
 c624: - f_2_1 - h_2_0_0_1 + g_2_1 - h_2_1_0_1 - h_2_2_0_1 - h_2_3_0_1
       - h_2_4_0_1 - h_2_5_0_1  = 0
 c625: - f_2_2 - h_2_0_0_2 - h_2_0_1_2 - h_2_1_0_2 - h_2_1_1_2 - h_2_2_0_2
       - h_2_2_1_2 - h_2_3_0_2 - h_2_3_1_2 - h_2_4_0_2 - h_2_4_1_2 - h_2_5_0_2
       - h_2_5_1_2 + g_2_2  = 0
 c626: - f_3_1 - h_3_0_0_1 + g_3_1 - h_3_1_0_1 - h_3_2_0_1 - h_3_3_0_1
       - h_3_4_0_1 - h_3_5_0_1  = 0
 c627: - f_3_2 - h_3_0_0_2 - h_3_0_1_2 - h_3_1_0_2 - h_3_1_1_2 - h_3_2_0_2
       - h_3_2_1_2 - h_3_3_0_2 - h_3_3_1_2 - h_3_4_0_2 - h_3_4_1_2 - h_3_5_0_2
       - h_3_5_1_2 + g_3_2  = 0
 c628: - f_4_1 - h_4_0_0_1 + g_4_1 - h_4_1_0_1 - h_4_2_0_1 - h_4_3_0_1
       - h_4_4_0_1 - h_4_5_0_1  = 0
 c629: - f_4_2 - h_4_0_0_2 - h_4_0_1_2 - h_4_1_0_2 - h_4_1_1_2 - h_4_2_0_2
       - h_4_2_1_2 - h_4_3_0_2 - h_4_3_1_2 - h_4_4_0_2 - h_4_4_1_2 - h_4_5_0_2
       - h_4_5_1_2 + g_4_2  = 0
 c630: - f_5_1 - h_5_0_0_1 + g_5_1 - h_5_1_0_1 - h_5_2_0_1 - h_5_3_0_1
       - h_5_4_0_1 - h_5_5_0_1  = 0
 c631: - f_5_2 - h_5_0_0_2 - h_5_0_1_2 - h_5_1_0_2 - h_5_1_1_2 - h_5_2_0_2
       - h_5_2_1_2 - h_5_3_0_2 - h_5_3_1_2 - h_5_4_0_2 - h_5_4_1_2 - h_5_5_0_2
       - h_5_5_1_2 + g_5_2  = 0
 c632: - x_0_0 + w_0_0_1 <= 0
 c633: - g_0_1 + w_0_0_1 <= 0
 c634: - x_0_0 - g_0_1 + w_0_0_1 >= -1
 c635: - x_0_0 + w_0_0_2 <= 0
 c636: - g_0_2 + w_0_0_2 <= 0
 c637: - x_0_0 - g_0_2 + w_0_0_2 >= -1
 c638: - x_0_1 + w_0_1_0 <= 0
 c639: - g_0_0 + w_0_1_0 <= 0
 c640: - x_0_1 - g_0_0 + w_0_1_0 >= -1
 c641: - x_0_1 + w_0_1_2 <= 0
 c642: - g_0_2 + w_0_1_2 <= 0
 c643: - x_0_1 - g_0_2 + w_0_1_2 >= -1
 c644: - x_0_2 + w_0_2_0 <= 0
 c645: - g_0_0 + w_0_2_0 <= 0
 c646: - x_0_2 - g_0_0 + w_0_2_0 >= -1
 c647: - x_0_2 + w_0_2_1 <= 0
 c648: - g_0_1 + w_0_2_1 <= 0
 c649: - x_0_2 - g_0_1 + w_0_2_1 >= -1
 c650: - x_1_0 + w_1_0_1 <= 0
 c651: - g_1_1 + w_1_0_1 <= 0
 c652: - x_1_0 - g_1_1 + w_1_0_1 >= -1
 c653: - x_1_0 + w_1_0_2 <= 0
 c654: - g_1_2 + w_1_0_2 <= 0
 c655: - x_1_0 - g_1_2 + w_1_0_2 >= -1
 c656: - x_1_1 + w_1_1_0 <= 0
 c657: - g_1_0 + w_1_1_0 <= 0
 c658: - x_1_1 - g_1_0 + w_1_1_0 >= -1
 c659: - x_1_1 + w_1_1_2 <= 0
 c660: - g_1_2 + w_1_1_2 <= 0
 c661: - x_1_1 - g_1_2 + w_1_1_2 >= -1
 c662: - x_1_2 + w_1_2_0 <= 0
 c663: - g_1_0 + w_1_2_0 <= 0
 c664: - x_1_2 - g_1_0 + w_1_2_0 >= -1
 c665: - x_1_2 + w_1_2_1 <= 0
 c666: - g_1_1 + w_1_2_1 <= 0
 c667: - x_1_2 - g_1_1 + w_1_2_1 >= -1
 c668: - x_2_0 + w_2_0_1 <= 0
 c669: - g_2_1 + w_2_0_1 <= 0
 c670: - x_2_0 - g_2_1 + w_2_0_1 >= -1
 c671: - x_2_0 + w_2_0_2 <= 0
 c672: - g_2_2 + w_2_0_2 <= 0
 c673: - x_2_0 - g_2_2 + w_2_0_2 >= -1
 c674: - x_2_1 + w_2_1_0 <= 0
 c675: - g_2_0 + w_2_1_0 <= 0
 c676: - x_2_1 - g_2_0 + w_2_1_0 >= -1
 c677: - x_2_1 + w_2_1_2 <= 0
 c678: - g_2_2 + w_2_1_2 <= 0
 c679: - x_2_1 - g_2_2 + w_2_1_2 >= -1
 c680: - x_2_2 + w_2_2_0 <= 0
 c681: - g_2_0 + w_2_2_0 <= 0
 c682: - x_2_2 - g_2_0 + w_2_2_0 >= -1
 c683: - x_2_2 + w_2_2_1 <= 0
 c684: - g_2_1 + w_2_2_1 <= 0
 c685: - x_2_2 - g_2_1 + w_2_2_1 >= -1
 c686: - x_3_0 + w_3_0_1 <= 0
 c687: - g_3_1 + w_3_0_1 <= 0
 c688: - x_3_0 - g_3_1 + w_3_0_1 >= -1
 c689: - x_3_0 + w_3_0_2 <= 0
 c690: - g_3_2 + w_3_0_2 <= 0
 c691: - x_3_0 - g_3_2 + w_3_0_2 >= -1
 c692: - x_3_1 + w_3_1_0 <= 0
 c693: - g_3_0 + w_3_1_0 <= 0
 c694: - x_3_1 - g_3_0 + w_3_1_0 >= -1
 c695: - x_3_1 + w_3_1_2 <= 0
 c696: - g_3_2 + w_3_1_2 <= 0
 c697: - x_3_1 - g_3_2 + w_3_1_2 >= -1
 c698: - x_3_2 + w_3_2_0 <= 0
 c699: - g_3_0 + w_3_2_0 <= 0
 c700: - x_3_2 - g_3_0 + w_3_2_0 >= -1
 c701: - x_3_2 + w_3_2_1 <= 0
 c702: - g_3_1 + w_3_2_1 <= 0
 c703: - x_3_2 - g_3_1 + w_3_2_1 >= -1
 c704: - x_4_0 + w_4_0_1 <= 0
 c705: - g_4_1 + w_4_0_1 <= 0
 c706: - x_4_0 - g_4_1 + w_4_0_1 >= -1
 c707: - x_4_0 + w_4_0_2 <= 0
 c708: - g_4_2 + w_4_0_2 <= 0
 c709: - x_4_0 - g_4_2 + w_4_0_2 >= -1
 c710: - x_4_1 + w_4_1_0 <= 0
 c711: - g_4_0 + w_4_1_0 <= 0
 c712: - x_4_1 - g_4_0 + w_4_1_0 >= -1
 c713: - x_4_1 + w_4_1_2 <= 0
 c714: - g_4_2 + w_4_1_2 <= 0
 c715: - x_4_1 - g_4_2 + w_4_1_2 >= -1
 c716: - x_4_2 + w_4_2_0 <= 0
 c717: - g_4_0 + w_4_2_0 <= 0
 c718: - x_4_2 - g_4_0 + w_4_2_0 >= -1
 c719: - x_4_2 + w_4_2_1 <= 0
 c720: - g_4_1 + w_4_2_1 <= 0
 c721: - x_4_2 - g_4_1 + w_4_2_1 >= -1
 c722: - x_5_0 + w_5_0_1 <= 0
 c723: - g_5_1 + w_5_0_1 <= 0
 c724: - x_5_0 - g_5_1 + w_5_0_1 >= -1
 c725: - x_5_0 + w_5_0_2 <= 0
 c726: - g_5_2 + w_5_0_2 <= 0
 c727: - x_5_0 - g_5_2 + w_5_0_2 >= -1
 c728: - x_5_1 + w_5_1_0 <= 0
 c729: - g_5_0 + w_5_1_0 <= 0
 c730: - x_5_1 - g_5_0 + w_5_1_0 >= -1
 c731: - x_5_1 + w_5_1_2 <= 0
 c732: - g_5_2 + w_5_1_2 <= 0
 c733: - x_5_1 - g_5_2 + w_5_1_2 >= -1
 c734: - x_5_2 + w_5_2_0 <= 0
 c735: - g_5_0 + w_5_2_0 <= 0
 c736: - x_5_2 - g_5_0 + w_5_2_0 >= -1
 c737: - x_5_2 + w_5_2_1 <= 0
 c738: - g_5_1 + w_5_2_1 <= 0
 c739: - x_5_2 - g_5_1 + w_5_2_1 >= -1
 c740: x_1_0 + x_4_1 - w_1_0_1 - w_4_0_1 <= 1
 c741: x_1_0 + x_4_2 - w_1_0_2 - w_4_0_2 <= 1
 c742: x_4_0 + x_1_1 - w_1_1_0 - w_4_1_0 <= 1
 c743: x_1_1 + x_4_2 - w_1_1_2 - w_4_1_2 <= 1
 c744: x_4_0 + x_1_2 - w_1_2_0 - w_4_2_0 <= 1
 c745: x_4_1 + x_1_2 - w_1_2_1 - w_4_2_1 <= 1
 c746: x_4_1 + x_2_0 - w_2_0_1 - w_4_0_1 <= 1
 c747: x_4_2 + x_2_0 - w_2_0_2 - w_4_0_2 <= 1
 c748: x_4_0 + x_2_1 - w_2_1_0 - w_4_1_0 <= 1
 c749: x_4_2 + x_2_1 - w_2_1_2 - w_4_1_2 <= 1
 c750: x_4_0 + x_2_2 - w_2_2_0 - w_4_2_0 <= 1
 c751: x_4_1 + x_2_2 - w_2_2_1 - w_4_2_1 <= 1
 c752: x_4_1 + x_3_0 - w_3_0_1 - w_4_0_1 <= 1
 c753: x_4_2 + x_3_0 - w_3_0_2 - w_4_0_2 <= 1
 c754: x_4_0 + x_3_1 - w_3_1_0 - w_4_1_0 <= 1
 c755: x_4_2 + x_3_1 - w_3_1_2 - w_4_1_2 <= 1
 c756: x_4_0 + x_3_2 - w_3_2_0 - w_4_2_0 <= 1
 c757: x_4_1 + x_3_2 - w_3_2_1 - w_4_2_1 <= 1
 c758: x_3_1 + x_0_0 - w_0_0_1 - w_1_0_1 - w_2_0_1 - w_3_0_1 - w_4_0_1 <= 1
 c759: x_3_2 + x_0_0 - w_0_0_2 - w_1_0_2 - w_2_0_2 - w_3_0_2 - w_4_0_2 <= 1
 c760: x_3_0 + x_0_1 - w_0_1_0 - w_1_1_0 - w_2_1_0 - w_3_1_0 - w_4_1_0 <= 1
 c761: x_3_2 + x_0_1 - w_0_1_2 - w_1_1_2 - w_2_1_2 - w_3_1_2 - w_4_1_2 <= 1
 c762: x_3_0 + x_0_2 - w_0_2_0 - w_1_2_0 - w_2_2_0 - w_3_2_0 - w_4_2_0 <= 1
 c763: x_3_1 + x_0_2 - w_0_2_1 - w_1_2_1 - w_2_2_1 - w_3_2_1 - w_4_2_1 <= 1
 c764: x_2_1 + x_0_0 - w_0_0_1 - w_1_0_1 - w_2_0_1 - w_3_0_1 - w_4_0_1 <= 1
 c765: x_2_2 + x_0_0 - w_0_0_2 - w_1_0_2 - w_2_0_2 - w_3_0_2 - w_4_0_2 <= 1
 c766: x_2_0 + x_0_1 - w_0_1_0 - w_1_1_0 - w_2_1_0 - w_3_1_0 - w_4_1_0 <= 1
 c767: x_2_2 + x_0_1 - w_0_1_2 - w_1_1_2 - w_2_1_2 - w_3_1_2 - w_4_1_2 <= 1
 c768: x_2_0 + x_0_2 - w_0_2_0 - w_1_2_0 - w_2_2_0 - w_3_2_0 - w_4_2_0 <= 1
 c769: x_2_1 + x_0_2 - w_0_2_1 - w_1_2_1 - w_2_2_1 - w_3_2_1 - w_4_2_1 <= 1
 c770: x_1_1 + x_0_0 - w_0_0_1 - w_1_0_1 - w_2_0_1 - w_3_0_1 - w_4_0_1 <= 1
 c771: x_1_2 + x_0_0 - w_0_0_2 - w_1_0_2 - w_2_0_2 - w_3_0_2 - w_4_0_2 <= 1
 c772: x_1_0 + x_0_1 - w_0_1_0 - w_1_1_0 - w_2_1_0 - w_3_1_0 - w_4_1_0 <= 1
 c773: x_1_2 + x_0_1 - w_0_1_2 - w_1_1_2 - w_2_1_2 - w_3_1_2 - w_4_1_2 <= 1
 c774: x_1_0 + x_0_2 - w_0_2_0 - w_1_2_0 - w_2_2_0 - w_3_2_0 - w_4_2_0 <= 1
 c775: x_1_1 + x_0_2 - w_0_2_1 - w_1_2_1 - w_2_2_1 - w_3_2_1 - w_4_2_1 <= 1
 c776: x_0_1 + x_5_0 - w_0_0_1 - w_1_0_1 - w_2_0_1 - w_3_0_1 - w_4_0_1
       - w_5_0_1 <= 1
 c777: x_0_2 + x_5_0 - w_0_0_2 - w_1_0_2 - w_2_0_2 - w_3_0_2 - w_4_0_2
       - w_5_0_2 <= 1
 c778: x_0_0 + x_5_1 - w_0_1_0 - w_1_1_0 - w_2_1_0 - w_3_1_0 - w_4_1_0
       - w_5_1_0 <= 1
 c779: x_0_2 + x_5_1 - w_0_1_2 - w_1_1_2 - w_2_1_2 - w_3_1_2 - w_4_1_2
       - w_5_1_2 <= 1
 c780: x_0_0 + x_5_2 - w_0_2_0 - w_1_2_0 - w_2_2_0 - w_3_2_0 - w_4_2_0
       - w_5_2_0 <= 1
 c781: x_0_1 + x_5_2 - w_0_2_1 - w_1_2_1 - w_2_2_1 - w_3_2_1 - w_4_2_1
       - w_5_2_1 <= 1
 c782: g_0_0  = 0
 c783: g_1_0  = 0
 c784: g_2_0  = 0
 c785: g_3_0  = 0
 c786: g_4_0  = 0
 c787: g_5_0  = 0
 c788: g_0_1 <= 1
 c789: g_0_2 <= 1
 c790: g_1_1 <= 1
 c791: g_1_2 <= 1
 c792: g_2_1 <= 1
 c793: g_2_2 <= 1
 c794: g_3_1 <= 1
 c795: g_3_2 <= 1
 c796: g_4_1 <= 1
 c797: g_4_2 <= 1
 c798: g_5_1 <= 1
 c799: g_5_2 <= 1
Bounds
 0 <= r_5_0 <= 1
 0 <= r_0_0 <= 1
 0 <= r_1_0 <= 1
 0 <= r_2_0 <= 1
 0 <= r_3_0 <= 1
 0 <= r_4_0 <= 1
 0 <= r_0_1 <= 1
 0 <= r_1_1 <= 1
 0 <= r_2_1 <= 1
 0 <= r_3_1 <= 1
 0 <= r_4_1 <= 1
 0 <= r_5_1 <= 1
 0 <= r_0_2 <= 1
 0 <= r_1_2 <= 1
 0 <= r_2_2 <= 1
 0 <= r_3_2 <= 1
 0 <= r_4_2 <= 1
 0 <= r_5_2 <= 1
 0 <= x_1_0 <= 1
 0 <= a_1_4_0 <= 1
 0 <= x_4_0 <= 1
 0 <= x_1_1 <= 1
 0 <= a_1_4_1 <= 1
 0 <= x_4_1 <= 1
 0 <= x_1_2 <= 1
 0 <= a_1_4_2 <= 1
 0 <= x_4_2 <= 1
 0 <= x_2_0 <= 1
 0 <= a_2_4_0 <= 1
 0 <= x_2_1 <= 1
 0 <= a_2_4_1 <= 1
 0 <= x_2_2 <= 1
 0 <= a_2_4_2 <= 1
 0 <= x_3_0 <= 1
 0 <= a_3_4_0 <= 1
 0 <= x_3_1 <= 1
 0 <= a_3_4_1 <= 1
 0 <= x_3_2 <= 1
 0 <= a_3_4_2 <= 1
 0 <= x_0_0 <= 1
 0 <= a_0_3_0 <= 1
 0 <= x_0_1 <= 1
 0 <= a_0_3_1 <= 1
 0 <= x_0_2 <= 1
 0 <= a_0_3_2 <= 1
 0 <= a_0_2_0 <= 1
 0 <= a_0_2_1 <= 1
 0 <= a_0_2_2 <= 1
 0 <= a_0_1_0 <= 1
 0 <= a_0_1_1 <= 1
 0 <= a_0_1_2 <= 1
 0 <= x_5_0 <= 1
 0 <= a_5_0_0 <= 1
 0 <= x_5_1 <= 1
 0 <= a_5_0_1 <= 1
 0 <= x_5_2 <= 1
 0 <= a_5_0_2 <= 1
 0 <= f_0_0 <= 1
 0 <= f_1_0 <= 1
 0 <= f_2_0 <= 1
 0 <= f_3_0 <= 1
 0 <= f_4_0 <= 1
 0 <= f_5_0 <= 1
 0 <= f_0_1 <= 1
 0 <= f_1_1 <= 1
 0 <= f_2_1 <= 1
 0 <= f_3_1 <= 1
 0 <= f_4_1 <= 1
 0 <= f_5_1 <= 1
 0 <= f_0_2 <= 1
 0 <= f_1_2 <= 1
 0 <= f_2_2 <= 1
 0 <= f_3_2 <= 1
 0 <= f_4_2 <= 1
 0 <= f_5_2 <= 1
 0 <= h_0_0_0_1 <= 1
 0 <= g_0_0 <= 1
 0 <= h_0_0_0_2 <= 1
 0 <= h_0_0_1_2 <= 1
 0 <= g_0_1 <= 1
 0 <= h_0_1_0_1 <= 1
 0 <= h_0_1_0_2 <= 1
 0 <= h_0_1_1_2 <= 1
 0 <= h_0_2_0_1 <= 1
 0 <= h_0_2_0_2 <= 1
 0 <= h_0_2_1_2 <= 1
 0 <= h_0_3_0_1 <= 1
 0 <= h_0_3_0_2 <= 1
 0 <= h_0_3_1_2 <= 1
 0 <= h_0_4_0_1 <= 1
 0 <= h_0_4_0_2 <= 1
 0 <= h_0_4_1_2 <= 1
 0 <= h_0_5_0_1 <= 1
 0 <= h_0_5_0_2 <= 1
 0 <= h_0_5_1_2 <= 1
 0 <= h_1_0_0_1 <= 1
 0 <= g_1_0 <= 1
 0 <= h_1_0_0_2 <= 1
 0 <= h_1_0_1_2 <= 1
 0 <= g_1_1 <= 1
 0 <= h_1_1_0_1 <= 1
 0 <= h_1_1_0_2 <= 1
 0 <= h_1_1_1_2 <= 1
 0 <= h_1_2_0_1 <= 1
 0 <= h_1_2_0_2 <= 1
 0 <= h_1_2_1_2 <= 1
 0 <= h_1_3_0_1 <= 1
 0 <= h_1_3_0_2 <= 1
 0 <= h_1_3_1_2 <= 1
 0 <= h_1_4_0_1 <= 1
 0 <= h_1_4_0_2 <= 1
 0 <= h_1_4_1_2 <= 1
 0 <= h_1_5_0_1 <= 1
 0 <= h_1_5_0_2 <= 1
 0 <= h_1_5_1_2 <= 1
 0 <= h_2_0_0_1 <= 1
 0 <= g_2_0 <= 1
 0 <= h_2_0_0_2 <= 1
 0 <= h_2_0_1_2 <= 1
 0 <= g_2_1 <= 1
 0 <= h_2_1_0_1 <= 1
 0 <= h_2_1_0_2 <= 1
 0 <= h_2_1_1_2 <= 1
 0 <= h_2_2_0_1 <= 1
 0 <= h_2_2_0_2 <= 1
 0 <= h_2_2_1_2 <= 1
 0 <= h_2_3_0_1 <= 1
 0 <= h_2_3_0_2 <= 1
 0 <= h_2_3_1_2 <= 1
 0 <= h_2_4_0_1 <= 1
 0 <= h_2_4_0_2 <= 1
 0 <= h_2_4_1_2 <= 1
 0 <= h_2_5_0_1 <= 1
 0 <= h_2_5_0_2 <= 1
 0 <= h_2_5_1_2 <= 1
 0 <= h_3_0_0_1 <= 1
 0 <= g_3_0 <= 1
 0 <= h_3_0_0_2 <= 1
 0 <= h_3_0_1_2 <= 1
 0 <= g_3_1 <= 1
 0 <= h_3_1_0_1 <= 1
 0 <= h_3_1_0_2 <= 1
 0 <= h_3_1_1_2 <= 1
 0 <= h_3_2_0_1 <= 1
 0 <= h_3_2_0_2 <= 1
 0 <= h_3_2_1_2 <= 1
 0 <= h_3_3_0_1 <= 1
 0 <= h_3_3_0_2 <= 1
 0 <= h_3_3_1_2 <= 1
 0 <= h_3_4_0_1 <= 1
 0 <= h_3_4_0_2 <= 1
 0 <= h_3_4_1_2 <= 1
 0 <= h_3_5_0_1 <= 1
 0 <= h_3_5_0_2 <= 1
 0 <= h_3_5_1_2 <= 1
 0 <= h_4_0_0_1 <= 1
 0 <= g_4_0 <= 1
 0 <= h_4_0_0_2 <= 1
 0 <= h_4_0_1_2 <= 1
 0 <= g_4_1 <= 1
 0 <= h_4_1_0_1 <= 1
 0 <= h_4_1_0_2 <= 1
 0 <= h_4_1_1_2 <= 1
 0 <= h_4_2_0_1 <= 1
 0 <= h_4_2_0_2 <= 1
 0 <= h_4_2_1_2 <= 1
 0 <= h_4_3_0_1 <= 1
 0 <= h_4_3_0_2 <= 1
 0 <= h_4_3_1_2 <= 1
 0 <= h_4_4_0_1 <= 1
 0 <= h_4_4_0_2 <= 1
 0 <= h_4_4_1_2 <= 1
 0 <= h_4_5_0_1 <= 1
 0 <= h_4_5_0_2 <= 1
 0 <= h_4_5_1_2 <= 1
 0 <= h_5_0_0_1 <= 1
 0 <= g_5_0 <= 1
 0 <= h_5_0_0_2 <= 1
 0 <= h_5_0_1_2 <= 1
 0 <= g_5_1 <= 1
 0 <= h_5_1_0_1 <= 1
 0 <= h_5_1_0_2 <= 1
 0 <= h_5_1_1_2 <= 1
 0 <= h_5_2_0_1 <= 1
 0 <= h_5_2_0_2 <= 1
 0 <= h_5_2_1_2 <= 1
 0 <= h_5_3_0_1 <= 1
 0 <= h_5_3_0_2 <= 1
 0 <= h_5_3_1_2 <= 1
 0 <= h_5_4_0_1 <= 1
 0 <= h_5_4_0_2 <= 1
 0 <= h_5_4_1_2 <= 1
 0 <= h_5_5_0_1 <= 1
 0 <= h_5_5_0_2 <= 1
 0 <= h_5_5_1_2 <= 1
 0 <= g_0_2 <= 1
 0 <= g_1_2 <= 1
 0 <= g_2_2 <= 1
 0 <= g_3_2 <= 1
 0 <= g_4_2 <= 1
 0 <= g_5_2 <= 1
 0 <= w_0_0_1 <= 1
 0 <= w_0_0_2 <= 1
 0 <= w_0_1_0 <= 1
 0 <= w_0_1_2 <= 1
 0 <= w_0_2_0 <= 1
 0 <= w_0_2_1 <= 1
 0 <= w_1_0_1 <= 1
 0 <= w_1_0_2 <= 1
 0 <= w_1_1_0 <= 1
 0 <= w_1_1_2 <= 1
 0 <= w_1_2_0 <= 1
 0 <= w_1_2_1 <= 1
 0 <= w_2_0_1 <= 1
 0 <= w_2_0_2 <= 1
 0 <= w_2_1_0 <= 1
 0 <= w_2_1_2 <= 1
 0 <= w_2_2_0 <= 1
 0 <= w_2_2_1 <= 1
 0 <= w_3_0_1 <= 1
 0 <= w_3_0_2 <= 1
 0 <= w_3_1_0 <= 1
 0 <= w_3_1_2 <= 1
 0 <= w_3_2_0 <= 1
 0 <= w_3_2_1 <= 1
 0 <= w_4_0_1 <= 1
 0 <= w_4_0_2 <= 1
 0 <= w_4_1_0 <= 1
 0 <= w_4_1_2 <= 1
 0 <= w_4_2_0 <= 1
 0 <= w_4_2_1 <= 1
 0 <= w_5_0_1 <= 1
 0 <= w_5_0_2 <= 1
 0 <= w_5_1_0 <= 1
 0 <= w_5_1_2 <= 1
 0 <= w_5_2_0 <= 1
 0 <= w_5_2_1 <= 1
Binaries
 r_5_0  r_0_0  r_1_0  r_2_0  r_3_0  r_4_0  r_0_1  r_1_1  r_2_1  r_3_1  r_4_1 
 r_5_1  r_0_2  r_1_2  r_2_2  r_3_2  r_4_2  r_5_2  x_1_0  a_1_4_0  x_4_0  x_1_1 
 a_1_4_1  x_4_1  x_1_2  a_1_4_2  x_4_2  x_2_0  a_2_4_0  x_2_1  a_2_4_1  x_2_2 
 a_2_4_2  x_3_0  a_3_4_0  x_3_1  a_3_4_1  x_3_2  a_3_4_2  x_0_0  a_0_3_0 
 x_0_1  a_0_3_1  x_0_2  a_0_3_2  a_0_2_0  a_0_2_1  a_0_2_2  a_0_1_0  a_0_1_1 
 a_0_1_2  x_5_0  a_5_0_0  x_5_1  a_5_0_1  x_5_2  a_5_0_2  f_0_0  f_1_0  f_2_0 
 f_3_0  f_4_0  f_5_0  f_0_1  f_1_1  f_2_1  f_3_1  f_4_1  f_5_1  f_0_2  f_1_2 
 f_2_2  f_3_2  f_4_2  f_5_2  h_0_0_0_1  g_0_0  h_0_0_0_2  h_0_0_1_2  g_0_1 
 h_0_1_0_1  h_0_1_0_2  h_0_1_1_2  h_0_2_0_1  h_0_2_0_2  h_0_2_1_2  h_0_3_0_1 
 h_0_3_0_2  h_0_3_1_2  h_0_4_0_1  h_0_4_0_2  h_0_4_1_2  h_0_5_0_1  h_0_5_0_2 
 h_0_5_1_2  h_1_0_0_1  g_1_0  h_1_0_0_2  h_1_0_1_2  g_1_1  h_1_1_0_1 
 h_1_1_0_2  h_1_1_1_2  h_1_2_0_1  h_1_2_0_2  h_1_2_1_2  h_1_3_0_1  h_1_3_0_2 
 h_1_3_1_2  h_1_4_0_1  h_1_4_0_2  h_1_4_1_2  h_1_5_0_1  h_1_5_0_2  h_1_5_1_2 
 h_2_0_0_1  g_2_0  h_2_0_0_2  h_2_0_1_2  g_2_1  h_2_1_0_1  h_2_1_0_2 
 h_2_1_1_2  h_2_2_0_1  h_2_2_0_2  h_2_2_1_2  h_2_3_0_1  h_2_3_0_2  h_2_3_1_2 
 h_2_4_0_1  h_2_4_0_2  h_2_4_1_2  h_2_5_0_1  h_2_5_0_2  h_2_5_1_2  h_3_0_0_1 
 g_3_0  h_3_0_0_2  h_3_0_1_2  g_3_1  h_3_1_0_1  h_3_1_0_2  h_3_1_1_2 
 h_3_2_0_1  h_3_2_0_2  h_3_2_1_2  h_3_3_0_1  h_3_3_0_2  h_3_3_1_2  h_3_4_0_1 
 h_3_4_0_2  h_3_4_1_2  h_3_5_0_1  h_3_5_0_2  h_3_5_1_2  h_4_0_0_1  g_4_0 
 h_4_0_0_2  h_4_0_1_2  g_4_1  h_4_1_0_1  h_4_1_0_2  h_4_1_1_2  h_4_2_0_1 
 h_4_2_0_2  h_4_2_1_2  h_4_3_0_1  h_4_3_0_2  h_4_3_1_2  h_4_4_0_1  h_4_4_0_2 
 h_4_4_1_2  h_4_5_0_1  h_4_5_0_2  h_4_5_1_2  h_5_0_0_1  g_5_0  h_5_0_0_2 
 h_5_0_1_2  g_5_1  h_5_1_0_1  h_5_1_0_2  h_5_1_1_2  h_5_2_0_1  h_5_2_0_2 
 h_5_2_1_2  h_5_3_0_1  h_5_3_0_2  h_5_3_1_2  h_5_4_0_1  h_5_4_0_2  h_5_4_1_2 
 h_5_5_0_1  h_5_5_0_2  h_5_5_1_2  g_0_2  g_1_2  g_2_2  g_3_2  g_4_2  g_5_2 
 w_0_0_1  w_0_0_2  w_0_1_0  w_0_1_2  w_0_2_0  w_0_2_1  w_1_0_1  w_1_0_2 
 w_1_1_0  w_1_1_2  w_1_2_0  w_1_2_1  w_2_0_1  w_2_0_2  w_2_1_0  w_2_1_2 
 w_2_2_0  w_2_2_1  w_3_0_1  w_3_0_2  w_3_1_0  w_3_1_2  w_3_2_0  w_3_2_1 
 w_4_0_1  w_4_0_2  w_4_1_0  w_4_1_2  w_4_2_0  w_4_2_1  w_5_0_1  w_5_0_2 
 w_5_1_0  w_5_1_2  w_5_2_0  w_5_2_1 
End
